CUST NO.,XCOORD.,YCOORD.,updated_SERVICE_TIME,DEMAND,TW_START,TW_END
2,35,17.0,8,0.4,0.0,600.0
3,55,45.0,8,1.2,400.0,750.0
4,55,20.0,8,1.6,650.0,1000.0
9,55,60.0,8,1.5,0.0,600.0
11,20,65.0,8,1.0,0.0,600.0
13,30,25.0,8,2.7,650.0,1000.0
14,15,10.0,8,1.3,0.0,600.0
20,45,65.0,8,0.8,400.0,750.0
22,45,10.0,8,0.7,0.0,600.0
23,55,5.0,8,2.1,0.0,600.0
24,65,35.0,8,0.1,400.0,750.0
26,35,35.0,0,0.0,0.0,0.0
capacity,1000,,0,0.0,,
